branch-and-cut/resultados/I080/i080-031.sol
1570
9
43 5
1 50
1 43
4 47
50 73
50 2
43 6
3 73
73 47
